qbf_easy_train/easy_1744_SAT.qdimacs
p cnf 26 65
a 14 6 15 0
e 1 2 3 4 5 7 8 9 10 11 12 13 16 17 18 19 20 21 22 23 24 25 26 0
1 2 -3 0
-1 -2 -3 0
1 -2 3 0
-1 2 3 0
5 6 -7 0
-5 -6 -7 0
5 -6 7 0
-5 6 7 0
8 -4 0
8 -7 0
4 7 -8 0
-9 -4 0
-9 -7 0
4 7 9 0
-10 11 -12 0
10 -11 -12 0
-10 -11 12 0
10 11 12 0
13 -10 0
13 10 0
-14 -2 0
-14 -1 0
2 1 14 0
-10 -14 -15 0
10 14 -15 0
-10 14 15 0
10 -14 15 0
16 -13 0
16 -15 0
13 15 -16 0
17 12 0
17 -16 0
-12 16 -17 0
19 1 0
19 -7 0
-1 7 -19 0
18 19 -20 0
-18 -19 -20 0
18 -19 20 0
-18 19 20 0
21 17 0
21 20 0
-17 -20 -21 0
-22 -9 0
-22 21 0
9 -21 22 0
-23 14 0
-23 -11 0
-14 11 23 0
-24 22 0
-24 -23 0
-22 23 24 0
25 -8 0
25 -24 0
8 24 -25 0
26 3 0
26 -25 0
-3 25 -26 0
26 -4 14 -18 -7 0
-23 -22 2 13 16 26 0
20 19 -17 -11 25 0
13 18 4 -23 1 17 0
-12 -21 -1 18 -15 -2 10 -19 0
18 17 11 23 0
26 0
