sat_easy_train/easy_1744_SAT.dimacs
p cnf 129 432
3 1 0
3 2 0
-1 -2 -3 0
6 4 0
6 5 0
-4 -5 -6 0
-7 -3 0
-7 6 0
3 -6 7 0
-8 -7 0
-8 6 0
7 -6 8 0
8 -9 -10 0
-8 9 -10 0
8 9 10 0
-8 -9 10 0
-3 5 -11 0
3 -5 -11 0
-3 -5 11 0
3 5 11 0
-14 13 0
-14 3 0
-13 -3 14 0
-15 12 0
-15 -14 0
-12 14 15 0
16 -11 0
16 -15 0
11 15 -16 0
-17 11 0
-17 16 0
-11 -16 17 0
18 -14 0
18 14 0
-19 13 0
-19 18 0
-13 -18 19 0
-20 -17 0
-20 19 0
17 -19 20 0
10 20 -21 0
-10 -20 -21 0
10 -20 21 0
-10 20 21 0
-23 22 0
-23 -4 0
-22 4 23 0
24 -14 0
24 23 0
14 -23 -24 0
9 25 -26 0
-9 -25 -26 0
9 -25 26 0
-9 25 26 0
-24 -26 -27 0
24 26 -27 0
-24 26 27 0
24 -26 27 0
21 -27 -28 0
-21 27 -28 0
21 27 28 0
-21 -27 28 0
-30 -26 0
-30 -29 0
26 29 30 0
30 -11 -31 0
-30 11 -31 0
30 11 31 0
-30 -11 31 0
32 6 0
32 6 0
-6 -32 0
23 -34 -35 0
-23 34 -35 0
23 34 35 0
-23 -34 35 0
-36 -35 0
-36 -4 0
35 4 36 0
-37 33 0
-37 -36 0
-33 36 37 0
32 -37 -38 0
-32 37 -38 0
32 37 38 0
-32 -37 38 0
-39 -31 0
-39 -38 0
31 38 39 0
-40 -22 -41 0
40 22 -41 0
-40 22 41 0
40 -22 41 0
-42 41 0
-42 24 0
-41 -24 42 0
43 2 0
43 42 0
-2 -42 -43 0
45 26 0
45 23 0
-26 -23 -45 0
46 44 0
46 -45 0
-44 45 -46 0
47 -43 0
47 46 0
43 -46 -47 0
1 47 -48 0
-1 -47 -48 0
1 -47 48 0
-1 47 48 0
-39 -48 -49 0
39 48 -49 0
-39 48 49 0
39 -48 49 0
-50 7 0
-50 41 0
-7 -41 50 0
30 50 -51 0
-30 -50 -51 0
30 -50 51 0
-30 50 51 0
51 52 -53 0
-51 -52 -53 0
51 -52 53 0
-51 52 53 0
-53 46 -54 0
53 -46 -54 0
-53 -46 54 0
53 46 54 0
-49 -54 -55 0
49 54 -55 0
-49 54 55 0
49 -54 55 0
56 28 0
56 55 0
-28 -55 -56 0
-57 15 0
-57 35 0
-15 -35 57 0
-58 -33 0
-58 -57 0
33 57 58 0
59 -11 0
59 2 0
11 -2 -59 0
60 6 0
60 -59 0
-6 59 -60 0
61 -58 0
61 60 0
58 -60 -61 0
22 -3 -62 0
-22 3 -62 0
22 3 62 0
-22 -3 62 0
-22 40 -63 0
22 -40 -63 0
-22 -40 63 0
22 40 63 0
64 63 0
64 -35 0
-63 35 -64 0
-62 64 -65 0
62 -64 -65 0
-62 -64 65 0
62 64 65 0
-66 4 0
-66 -23 0
-4 23 66 0
-41 66 -67 0
41 -66 -67 0
-41 -66 67 0
41 66 67 0
68 -2 0
68 -44 0
2 44 -68 0
-69 -59 0
-69 68 0
59 -68 69 0
-70 44 0
-70 69 0
-44 -69 70 0
71 -67 0
71 70 0
67 -70 -71 0
-72 65 0
-72 -71 0
-65 71 72 0
73 -61 0
73 72 0
61 -72 -73 0
-74 56 0
-74 73 0
-56 -73 74 0
-4 5 -75 0
4 -5 -75 0
-4 -5 75 0
4 5 75 0
29 33 -76 0
-29 -33 -76 0
29 -33 76 0
-29 33 76 0
-76 -42 -77 0
76 42 -77 0
-76 42 77 0
76 -42 77 0
-78 14 0
-78 -66 0
-14 66 78 0
-79 -1 0
-79 37 0
1 -37 79 0
-80 78 0
-80 -79 0
-78 79 80 0
-81 77 0
-81 80 0
-77 -80 81 0
-82 -75 0
-82 81 0
75 -81 82 0
69 12 -83 0
-69 -12 -83 0
69 -12 83 0
-69 12 83 0
-84 29 0
-84 -36 0
-29 36 84 0
85 83 0
85 -84 0
-83 84 -85 0
-86 -17 0
-86 -42 0
17 42 86 0
-87 19 0
-87 47 0
-19 -47 87 0
32 69 -88 0
-32 -69 -88 0
32 -69 88 0
-32 69 88 0
-87 -88 -89 0
87 88 -89 0
-87 88 89 0
87 -88 89 0
90 -86 0
90 89 0
86 -89 -90 0
-91 85 0
-91 90 0
-85 -90 91 0
-92 3 0
-92 -36 0
-3 36 92 0
93 -30 0
93 23 0
30 -23 -93 0
-94 92 0
-94 -93 0
-92 93 94 0
95 4 0
95 -12 0
-4 12 -95 0
-95 -59 -96 0
95 59 -96 0
-95 59 96 0
95 -59 96 0
-97 94 0
-97 -96 0
-94 96 97 0
-98 -91 0
-98 97 0
91 -97 98 0
-99 -68 0
-99 41 0
68 -41 99 0
100 -88 0
100 -63 0
88 63 -100 0
-101 16 0
-101 -100 0
-16 100 101 0
101 -50 -102 0
-101 50 -102 0
101 50 102 0
-101 -50 102 0
-103 99 0
-103 102 0
-99 -102 103 0
104 26 0
104 -35 0
-26 35 -104 0
105 15 0
105 -104 0
-15 104 -105 0
-103 -105 -106 0
103 105 -106 0
-103 105 106 0
103 -105 106 0
107 98 0
107 -106 0
-98 106 -107 0
108 -82 0
108 -107 0
82 107 -108 0
-109 74 0
-109 108 0
-74 -108 109 0
-110 42 0
-110 -59 0
-42 59 110 0
-111 5 0
-111 45 0
-5 -45 111 0
112 -111 0
112 -63 0
111 63 -112 0
-110 -112 -113 0
110 112 -113 0
-110 112 113 0
110 -112 113 0
-53 -42 -115 0
53 42 -115 0
-53 42 115 0
53 -42 115 0
116 -114 0
116 -115 0
114 115 -116 0
19 -30 -117 0
-19 30 -117 0
19 30 117 0
-19 -30 117 0
-117 68 -118 0
117 -68 -118 0
-117 -68 118 0
117 68 118 0
116 118 -119 0
-116 -118 -119 0
116 -118 119 0
-116 118 119 0
-120 -113 0
-120 -119 0
113 119 120 0
-121 13 0
-121 -22 0
-13 22 121 0
122 121 0
122 -12 0
-121 12 -122 0
-123 122 0
-123 -34 0
-122 34 123 0
-120 -123 -124 0
120 123 -124 0
-120 123 124 0
120 -123 124 0
125 52 0
125 -1 0
-52 1 -125 0
100 -19 -126 0
-100 19 -126 0
100 19 126 0
-100 -19 126 0
-127 125 0
-127 126 0
-125 -126 127 0
-124 -127 -128 0
124 127 -128 0
-124 127 128 0
124 -127 128 0
129 -109 0
129 -128 0
109 128 -129 0
-83 -62 101 86 64 117 0
10 106 0
-78 -121 69 115 -17 0
16 -60 0
75 -3 -52 8 37 0
99 26 68 0
65 93 0
-46 -125 53 0
-25 -75 3 121 8 0
-29 106 -37 -84 49 0
-62 55 102 0
-118 79 -76 -51 -9 0
62 40 123 -37 13 0
21 -60 -71 -70 -26 0
-56 -20 0
-109 115 29 0
94 44 0
122 81 -35 0
112 87 -88 49 47 63 0
-93 -112 48 -34 0
59 3 -33 0
-9 96 118 19 101 0
-72 28 91 0
65 -60 113 0
37 -20 0
-40 -68 -90 0
-58 106 32 0
-8 -51 35 -109 0
71 -90 0
-11 -70 -42 0
-12 -13 -10 3 66 73 0
6 12 0
-39 108 -97 -46 -31 -99 0
10 84 0
-54 33 -34 40 -88 0
108 51 -29 -46 124 0
-100 -71 -73 31 0
53 -51 83 -29 54 28 0
121 64 -92 99 -14 26 0
-2 -16 -107 0
-66 -63 0
-10 -106 -2 110 -109 0
-41 -127 0
27 62 0
-43 48 121 85 86 112 0
113 -13 122 0
17 73 114 88 127 0
13 -68 100 122 0
126 71 0
-103 73 91 0
-75 63 0
-53 -98 48 -46 -103 0
-34 20 66 -52 0
-5 -32 0
16 98 23 0
-30 42 -28 -77 -64 0
129 0
